qbf_easy_train/easy_1082_SAT.qdimacs
p cnf 21 49
a 8 1 2 0
e 3 4 5 6 7 9 10 11 12 13 14 15 16 17 18 19 20 21 0
-2 3 -4 0
2 -3 -4 0
-2 -3 4 0
2 3 4 0
-1 -4 -5 0
1 4 -5 0
-1 4 5 0
1 -4 5 0
-7 6 0
-7 1 0
-6 -1 7 0
-9 7 0
-9 -8 0
-7 8 9 0
10 -5 0
10 9 0
5 -9 -10 0
12 -2 0
12 11 0
2 -11 -12 0
-13 2 -14 0
13 -2 -14 0
-13 -2 14 0
13 2 14 0
14 15 -16 0
-14 -15 -16 0
14 -15 16 0
-14 15 16 0
-17 7 0
-17 13 0
-7 -13 17 0
-17 7 -18 0
17 -7 -18 0
-17 -7 18 0
17 7 18 0
-19 -16 0
-19 -18 0
16 18 19 0
20 -12 0
20 19 0
12 -19 -20 0
21 10 0
21 -20 0
-10 20 -21 0
-13 -9 -5 -19 -7 2 0
19 -4 -21 -3 -2 0
-1 -15 0
8 13 -9 0
21 0
