sat_easy_train/easy_1082_SAT.dimacs
p cnf 107 348
-3 1 0
-3 2 0
-1 -2 3 0
-5 -3 0
-5 -4 0
3 4 5 0
6 7 -8 0
-6 -7 -8 0
6 -7 8 0
-6 7 8 0
10 -4 0
10 9 0
4 -9 -10 0
-5 10 -11 0
5 -10 -11 0
-5 -10 11 0
5 10 11 0
-11 -1 -12 0
11 1 -12 0
-11 1 12 0
11 -1 12 0
-13 6 -14 0
13 -6 -14 0
-13 -6 14 0
13 6 14 0
12 14 -15 0
-12 -14 -15 0
12 -14 15 0
-12 14 15 0
-17 -15 0
-17 -16 0
15 16 17 0
-18 -8 0
-18 -17 0
8 17 18 0
5 18 -19 0
-5 -18 -19 0
5 -18 19 0
-5 18 19 0
-11 20 0
11 20 0
-6 -12 -21 0
6 12 -21 0
-6 12 21 0
6 -12 21 0
7 22 -23 0
-7 -22 -23 0
7 -22 23 0
-7 22 23 0
-10 24 -25 0
10 -24 -25 0
-10 -24 25 0
10 24 25 0
26 23 0
26 25 0
-23 -25 -26 0
-27 -21 0
-27 26 0
21 -26 27 0
-22 -6 -28 0
22 6 -28 0
-22 6 28 0
22 -6 28 0
29 -28 0
29 -28 0
28 -29 0
-30 27 0
-30 -29 0
-27 29 30 0
-31 8 0
-31 -3 0
-8 3 31 0
-32 -30 0
-32 -31 0
30 31 32 0
33 -20 0
33 32 0
20 -32 -33 0
7 28 -34 0
-7 -28 -34 0
7 -28 34 0
-7 28 34 0
-35 33 0
-35 -34 0
-33 34 35 0
36 26 -37 0
-36 -26 -37 0
36 -26 37 0
-36 26 37 0
38 9 0
38 4 0
-9 -4 -38 0
39 -16 0
39 38 0
16 -38 -39 0
-39 -5 -40 0
39 5 -40 0
-39 5 40 0
39 -5 40 0
-41 -26 0
-41 -3 0
26 3 41 0
42 -40 0
42 41 0
40 -41 -42 0
43 37 0
43 42 0
-37 -42 -43 0
-44 35 0
-44 -43 0
-35 43 44 0
-45 -19 0
-45 44 0
19 -44 45 0
46 4 0
46 -8 0
-4 8 -46 0
11 -10 -47 0
-11 10 -47 0
11 10 47 0
-11 -10 47 0
48 -6 0
48 -8 0
6 8 -48 0
-49 17 0
-49 48 0
-17 -48 49 0
49 5 -50 0
-49 -5 -50 0
49 -5 50 0
-49 5 50 0
-51 47 0
-51 50 0
-47 -50 51 0
-52 46 0
-52 -51 0
-46 51 52 0
53 -8 0
53 38 0
8 -38 -53 0
54 2 0
54 -53 0
-2 53 -54 0
56 11 0
56 -55 0
-11 55 -56 0
57 54 0
57 56 0
-54 -56 -57 0
59 -58 0
59 5 0
58 -5 -59 0
60 24 0
60 -59 0
-24 59 -60 0
-61 57 0
-61 60 0
-57 -60 61 0
62 -25 0
62 29 0
25 -29 -62 0
27 62 -63 0
-27 -62 -63 0
27 -62 63 0
-27 62 63 0
64 16 0
64 -9 0
-16 9 -64 0
-65 38 0
-65 9 0
-38 -9 65 0
64 65 -66 0
-64 -65 -66 0
64 -65 66 0
-64 65 66 0
-67 -8 0
-67 22 0
8 -22 67 0
68 2 0
68 -56 0
-2 56 -68 0
-28 68 -69 0
28 -68 -69 0
-28 -68 69 0
28 68 69 0
70 -67 0
70 69 0
67 -69 -70 0
-71 66 0
-71 70 0
-66 -70 71 0
72 63 0
72 71 0
-63 -71 -72 0
61 -72 -73 0
-61 72 -73 0
61 72 73 0
-61 -72 73 0
74 52 0
74 -73 0
-52 73 -74 0
-75 36 0
-75 -17 0
-36 17 75 0
76 -3 0
76 75 0
3 -75 -76 0
76 -24 -77 0
-76 24 -77 0
76 24 77 0
-76 -24 77 0
79 78 0
79 -29 0
-78 29 -79 0
49 -3 -80 0
-49 3 -80 0
49 3 80 0
-49 -3 80 0
-81 14 0
-81 -36 0
-14 36 81 0
-82 -12 0
-82 81 0
12 -81 82 0
-83 80 0
-83 82 0
-80 -82 83 0
-85 36 0
-85 -55 0
-36 55 85 0
86 -84 0
86 -85 0
84 85 -86 0
87 8 0
87 86 0
-8 -86 -87 0
-22 -38 -88 0
22 38 -88 0
-22 38 88 0
22 -38 88 0
-89 87 0
-89 -88 0
-87 88 89 0
91 90 0
91 -7 0
-90 7 -91 0
92 -58 0
92 -58 0
58 -92 0
91 -92 -93 0
-91 92 -93 0
91 92 93 0
-91 -92 93 0
94 -89 0
94 -93 0
89 93 -94 0
-95 83 0
-95 -94 0
-83 94 95 0
-79 95 -96 0
79 -95 -96 0
-79 -95 96 0
79 95 96 0
77 -96 -97 0
-77 96 -97 0
77 96 97 0
-77 -96 97 0
74 97 -98 0
-74 -97 -98 0
74 -97 98 0
-74 97 98 0
99 -2 0
99 26 0
2 -26 -99 0
18 -59 -100 0
-18 59 -100 0
18 59 100 0
-18 -59 100 0
99 -100 -101 0
-99 100 -101 0
99 100 101 0
-99 -100 101 0
-101 -8 -102 0
101 8 -102 0
-101 8 102 0
101 -8 102 0
103 -26 0
103 102 0
26 -102 -103 0
-84 -62 -104 0
84 62 -104 0
-84 62 104 0
84 -62 104 0
-105 -103 0
-105 -104 0
103 104 105 0
106 -98 0
106 105 0
98 -105 -106 0
107 -45 0
107 -106 0
45 106 -107 0
-87 56 -101 9 0
-6 -94 0
-55 54 15 103 67 0
-58 -72 65 -28 7 0
42 80 -7 -75 104 0
61 -107 -23 0
-83 75 0
-2 1 99 0
90 -82 -32 0
-61 7 -34 0
-47 -107 72 -101 60 0
80 2 46 0
-19 79 29 -97 -26 0
-39 14 0
-102 -48 50 0
57 72 -54 -62 40 0
-101 29 49 74 0
63 82 -106 0
11 59 0
-40 -90 94 78 -24 70 0
-91 -99 95 0
12 44 -32 -31 0
42 -20 -61 -49 -2 0
1 81 74 0
39 -61 -50 0
-93 95 -82 99 0
13 15 -14 -59 0
-33 -84 -102 83 0
13 -56 -54 0
101 90 0
-4 -31 99 0
69 -49 32 106 0
-6 45 2 38 96 75 0
18 -22 0
-70 -39 19 -47 17 0
-85 15 0
16 -5 36 106 -30 0
10 82 80 0
26 -71 0
-16 19 -77 48 0
-12 -64 -6 -100 -26 42 0
73 45 0
74 -7 -78 0
98 59 18 0
63 -8 95 -46 0
107 0
